(set-logic ALL)
(declare-const GEN1 (_ BitVec 3))
(declare-const GEN2 (_ BitVec 3))
(declare-const BAV3 Bool)
(declare-fun x0 () (_ BitVec 3))
(assert (not (= GEN1 x0)))
(assert (bvult GEN2 x0))
(assert (= BAV3 (= GEN1 x0)))
(check-sat)
(check-sat)